\* row_knapsack_problem *\
Minimize
knapsack: 3 row_10 + row_11 + 3 row_12 + 3 row_14 + 3 row_16 + 3 row_17
 + 3 row_18 + 2 row_19 + row_2 + row_20 + row_21 + 3 row_22 + row_23
 + 2 row_24 + 3 row_25 + 3 row_27 + 3 row_29 + 3 row_3 + 3 row_30 + 3 row_32
 + 3 row_34 + 3 row_35 + row_36 + 3 row_37 + 3 row_39 + row_4 + 3 row_40
 + 3 row_41 + 3 row_42 + 3 row_44 + 3 row_47 + row_48 + 3 row_6 + row_7
 + row_9
Subject To
sensitivity: 3 row_0 + 3 row_1 + 2 row_11 + 3 row_13 + 3 row_15 + row_19
 + 2 row_2 + 2 row_20 + 2 row_21 + 2 row_23 + row_24 + 3 row_26 + 3 row_28
 + 3 row_31 + 3 row_33 + 2 row_36 + 3 row_38 + 2 row_4 + 3 row_43 + 3 row_45
 + 3 row_46 + 2 row_48 + 3 row_49 + 3 row_5 + 2 row_7 + 3 row_8 + 2 row_9
 >= 160.8
Bounds
 row_0 <= 1
 row_1 <= 1
 row_10 <= 1
 row_11 <= 1
 row_12 <= 1
 row_13 <= 1
 row_14 <= 1
 row_15 <= 1
 row_16 <= 1
 row_17 <= 1
 row_18 <= 1
 row_19 <= 1
 row_2 <= 1
 row_20 <= 1
 row_21 <= 1
 row_22 <= 1
 row_23 <= 1
 row_24 <= 1
 row_25 <= 1
 row_26 <= 1
 row_27 <= 1
 row_28 <= 1
 row_29 <= 1
 row_3 <= 1
 row_30 <= 1
 row_31 <= 1
 row_32 <= 1
 row_33 <= 1
 row_34 <= 1
 row_35 <= 1
 row_36 <= 1
 row_37 <= 1
 row_38 <= 1
 row_39 <= 1
 row_4 <= 1
 row_40 <= 1
 row_41 <= 1
 row_42 <= 1
 row_43 <= 1
 row_44 <= 1
 row_45 <= 1
 row_46 <= 1
 row_47 <= 1
 row_48 <= 1
 row_49 <= 1
 row_5 <= 1
 row_6 <= 1
 row_7 <= 1
 row_8 <= 1
 row_9 <= 1
End
